4
Properties=species:S:1:pos:R:3:forces:R:3:energies:R:1 energy=-4126.604230641117 stress="-1.88205236391953e-09 -5.808816901675684e-11 -8.693473607831367e-11 -5.808816901675684e-11 -5.7551011367071894e-09 -5.180644937106904e-11 -8.693473607831367e-11 -5.180644937106904e-11 -4.21686357861217e-09" free_energy=-4126.604230641117 pbc="F F F"
O       -0.59190747       0.37556579       0.32676302      -0.00000503       0.00072046       0.00044944   -2047.07174299
O        0.61302724      -0.39607962       0.25592329       0.00003572      -0.00075027       0.00039625   -2047.07174298
H       -1.17450178      -0.12779975      -0.25401585      -0.00009921      -0.00036892      -0.00043331     -16.23037234
H        1.15338201       0.14831358      -0.32867046       0.00006852       0.00039873      -0.00041238     -16.23037234
