5
Properties=species:S:1:pos:R:3:forces:R:3:energies:R:1 energy=-1103.0600242862374 stress="-2.352855460501808e-08 8.197838832050345e-13 3.325087297000198e-12 8.197838832050345e-13 -2.3530028520189537e-08 2.403524167198697e-13 3.325087297000198e-12 2.403524167198697e-13 -2.353346236481396e-08" free_energy=-1103.0600242862374 pbc="F F F"
C       -0.00000001      -0.00000000      -0.00000001       0.00000016       0.00000008       0.00000015   -1037.98443820
H       -0.67181358       0.84965947      -0.08491530      -0.00097560       0.00123388      -0.00012324     -16.26889653
H       -0.39288249      -0.83156981      -0.57844648      -0.00057038      -0.00120758      -0.00084008     -16.26889653
H        0.08431078      -0.29220606       1.04305925       0.00012219      -0.00042438       0.00151488     -16.26889651
H        0.98038530       0.27411641      -0.37969745       0.00142363       0.00039800      -0.00055171     -16.26889652
