11
Properties=species:S:1:pos:R:3:forces:R:3:energies:R:1 energy=-3243.9350028262666 stress="-2.9103940788087535e-09 2.980733201878759e-21 4.958867080203868e-22 2.980733201878759e-21 5.300486341781218e-08 5.335969525235745e-21 4.958867080203868e-22 5.335969525235745e-21 -1.0649933133218046e-08" free_energy=-3243.9350028262666 pbc="F F F"
C       -0.00000000       0.00000000       0.58793632      -0.00000000      -0.00000000       0.00190856   -1038.06075495
C        0.00000000       1.26671234      -0.25944749      -0.00000000       0.00140892       0.00492274   -1038.03725409
C       -0.00000000      -1.26671234      -0.25944749      -0.00000000      -0.00140892       0.00492274   -1038.03725409
H       -0.87300358      -0.00000000       1.24243087       0.00154126       0.00000000       0.00046742     -16.19561328
H        0.87300358      -0.00000000       1.24243087      -0.00154126       0.00000000       0.00046742     -16.19561328
H       -0.00000000       2.16325087       0.35893728       0.00000000      -0.00255484      -0.00290884     -16.23393022
H        0.00000000      -2.16325087       0.35893728       0.00000000       0.00255484      -0.00290884     -16.23393022
H        0.87985866       1.30435315      -0.90212391       0.00106277      -0.00222832      -0.00171780     -16.23516318
H       -0.87985866       1.30435315      -0.90212391      -0.00106277      -0.00222832      -0.00171780     -16.23516318
H       -0.87985866      -1.30435315      -0.90212391      -0.00106277       0.00222832      -0.00171780     -16.23516318
H        0.87985866      -1.30435315      -0.90212391       0.00106277       0.00222832      -0.00171780     -16.23516318
