4
Properties=species:S:1:pos:R:3:forces:R:3:energies:R:1 energy=-1540.072116315489 stress="6.78601687643853e-08 -1.249517918169546e-21 -1.6670439388274929e-21 -1.249517918169546e-21 6.85062787181788e-08 -2.905101128559083e-10 -1.6670439388274929e-21 -2.905101128559083e-10 -2.742915800210474e-10" free_energy=-1540.072116315489 pbc="F F F"
N       -0.00000000      -0.00000035       0.10694207       0.00000000       0.00006423       0.00006065   -1491.14363242
H       -0.00000000       0.93899813      -0.26862579       0.00000000      -0.00406023      -0.00000309     -16.30949419
H        0.81319542      -0.46949839      -0.26862564      -0.00346473       0.00199800      -0.00002878     -16.30949485
H       -0.81319542      -0.46949839      -0.26862564       0.00346473       0.00199800      -0.00002878     -16.30949485
