3
Properties=species:S:1:pos:R:3:forces:R:3:energies:R:1 energy=-5135.004490389935 stress="-5.0909956676298094e-08 2.1358443128580426e-08 0.0 2.1358443128580426e-08 -8.960586939226566e-09 0.0 0.0 0.0 0.0" free_energy=-5135.004490389935 pbc="F F F"
O       -1.07358810       0.07121737       0.00000000      -0.00267159       0.00112100       0.00000000   -2048.53030714
C       -0.00000232      -0.37918803       0.00000000       0.00052725      -0.00022155       0.00000000   -1037.94388676
O        1.07359042      -0.82959641       0.00000000       0.00214435      -0.00089945       0.00000000   -2048.53029649
