6
Properties=species:S:1:pos:R:3:forces:R:3:energies:R:1 energy=-3151.001177868736 stress="-2.821478330785091e-08 -2.5993797518483422e-09 0.0 -2.5993797518483422e-09 -2.4998138571596452e-08 0.0 0.0 0.0 -9.1075882345339e-09" free_energy=-3151.001177868736 pbc="F F F"
C       -0.04796380       0.66555473       0.00000000       0.00065460       0.00058809       0.00000000   -1038.10590710
O       -0.03638878      -0.75417120       0.00000000      -0.00229009       0.00184096       0.00000000   -2048.11913944
H       -1.09017133       0.97248712       0.00000000      -0.00091833      -0.00174824       0.00000000     -16.15259996
H        0.87327708      -1.05231905       0.00000000       0.00176148      -0.00283095       0.00000000     -16.26344759
H        0.43340692       1.07818270       0.88916817       0.00039617       0.00107507       0.00053270     -16.18004189
H        0.43340692       1.07818270      -0.88916817       0.00039617       0.00107507      -0.00053270     -16.18004189
