9
Properties=species:S:1:pos:R:3:forces:R:3:energies:R:1 energy=-15052.781141933736 stress="0.0 0.0 0.0 0.0 -9.900134901692065e-09 4.753566010702062e-19 0.0 4.753566010702062e-19 -1.9398565816533396e-08" free_energy=-15052.781141933736 pbc="F F F"
S        0.00000000       0.00000000       1.18388880       0.00000000      -0.00000000       0.00113719  -10837.38911040
C        0.00000000       1.23027145      -0.00663311       0.00000000       0.00087760       0.00212664   -1037.37770446
C        0.00000000      -1.23027145      -0.00663311       0.00000000      -0.00087760       0.00212664   -1037.37770446
C        0.00000000       0.71217064      -1.26454422       0.00000000      -0.00267081      -0.00268219   -1037.68605987
C        0.00000000      -0.71217064      -1.26454422       0.00000000       0.00267081      -0.00268219   -1037.68605987
H        0.00000000       2.26710744       0.28270260       0.00000000      -0.00006082      -0.00009267     -16.31438887
H        0.00000000      -2.26710744       0.28270260       0.00000000       0.00006082      -0.00009267     -16.31438887
H        0.00000000       1.31664381      -2.15763618       0.00000000       0.00222276       0.00007962     -16.31786257
H        0.00000000      -1.31664381      -2.15763618       0.00000000      -0.00222276       0.00007962     -16.31786257
